r = [
0,47,66,5,1,19,133,4,144,116,65,0
];
p = [
0,26,3,29,19,12,26,10,6,8,23,0
];
e = [
0,19,3,10,9,18,5,3,15,11,11,0
];
d = [
0,95,102,34,47,31,159,14,150,131,121,172
];
d_bar = [
0,108,104,49,57,37,172,19,153,135,133,172
];
w = [
0,1.461538462,1.5,0.666666667,0.9,3,0.384615385,0.6,5,2.75,0.916666667,0
];
